VER
4

OBJSENSE
MIN

VAR
137 1
F 137

CON
6466 3
SVECPSD 136
SVECORE 6240
L= 90

OBJACOORD
16
0 -1.0
2 -1.0
5 -1.0
9 -1.0
14 1.0
20 1.0
27 1.0
35 1.0
44 1.0
54 1.0
65 1.0
77 1.0
90 -1.0
104 -1.0
119 -1.0
135 -1.0

ACOORD
897
4526 0 1.0
4448 0 1.0
4310 0 1.0
4296 0 1.0
2281 0 1.0
2260 0 1.0
2221 0 1.0
2216 0 1.0
201 0 4.0
180 0 4.0
141 0 4.0
0 0 1.0
1 1 1.0
4548 2 1.0
4466 2 1.0
4316 2 1.0
4298 2 1.0
2293 2 1.0
2270 2 1.0
2225 2 1.0
2218 2 1.0
190 2 4.0
2 2 1.0
4569 3 1.0
4483 3 1.0
4321 3 1.0
4299 3 1.0
2331 3 1.0
2302 3 1.0
2239 3 1.0
2226 3 1.0
251 3 2.0
222 3 2.0
159 3 2.0
146 3 -2.0
3 3 1.0
4 4 1.0
4571 5 1.0
4485 5 1.0
4323 5 1.0
4301 5 1.0
2335 5 1.0
2306 5 1.0
2243 5 1.0
2230 5 1.0
150 5 -4.0
5 5 1.0
6 6 1.0
4593 7 1.0
4503 7 1.0
4329 7 1.0
4303 7 1.0
2347 7 1.0
2316 7 1.0
2247 7 1.0
2232 7 1.0
236 7 4.0
7 7 1.0
8 8 1.0
4595 9 1.0
4505 9 1.0
4331 9 1.0
4305 9 1.0
2351 9 1.0
2320 9 1.0
2251 9 1.0
2236 9 1.0
240 9 4.0
9 9 1.0
4722 10 1.0
4612 10 1.0
4378 10 1.0
4332 10 1.0
2577 10 1.0
2524 10 1.0
2389 10 1.0
2352 10 1.0
497 10 2.0
444 10 2.0
309 10 2.0
272 10 -2.0
10 10 1.0
11 11 1.0
4724 12 1.0
4614 12 1.0
4380 12 1.0
4334 12 1.0
2581 12 1.0
2528 12 1.0
2393 12 1.0
2356 12 1.0
276 12 -4.0
12 12 1.0
13 13 1.0
4730 14 1.0
4620 14 1.0
4386 14 1.0
4340 14 1.0
2593 14 1.0
2540 14 1.0
2405 14 1.0
2368 14 1.0
288 14 -4.0
14 14 1.0
15 15 1.0
4752 16 1.0
4638 16 1.0
4392 16 1.0
4342 16 1.0
2605 16 1.0
2550 16 1.0
2409 16 1.0
2370 16 1.0
525 16 -2.0
470 16 2.0
329 16 -2.0
290 16 -2.0
16 16 1.0
17 17 1.0
4754 18 1.0
4640 18 1.0
4394 18 1.0
4344 18 1.0
2609 18 1.0
2554 18 1.0
2413 18 1.0
2374 18 1.0
529 18 -2.0
474 18 2.0
333 18 -2.0
294 18 -2.0
18 18 1.0
19 19 1.0
4760 20 1.0
4646 20 1.0
4400 20 1.0
4350 20 1.0
2621 20 1.0
2566 20 1.0
2425 20 1.0
2386 20 1.0
541 20 -4.0
345 20 -4.0
306 20 -4.0
20 20 1.0
4781 21 1.0
4663 21 1.0
4405 21 1.0
4351 21 1.0
2691 21 1.0
2630 21 1.0
2471 21 1.0
2426 21 1.0
611 21 2.0
550 21 2.0
391 21 2.0
346 21 -2.0
21 21 1.0
22 22 1.0
4783 23 1.0
4665 23 1.0
4407 23 1.0
4353 23 1.0
2695 23 1.0
2634 23 1.0
2475 23 1.0
2430 23 1.0
350 23 -4.0
23 23 1.0
24 24 1.0
4789 25 1.0
4671 25 1.0
4413 25 1.0
4359 25 1.0
2707 25 1.0
2646 25 1.0
2487 25 1.0
2442 25 1.0
362 25 -4.0
25 25 1.0
26 26 1.0
4791 27 1.0
4673 27 1.0
4415 27 1.0
4361 27 1.0
2711 27 1.0
2650 27 1.0
2491 27 1.0
2446 27 1.0
366 27 -4.0
27 27 1.0
28 28 1.0
4813 29 1.0
4691 29 1.0
4421 29 1.0
4363 29 1.0
2723 29 1.0
2660 29 1.0
2495 29 1.0
2448 29 1.0
580 29 4.0
29 29 1.0
30 30 1.0
4815 31 1.0
4693 31 1.0
4423 31 1.0
4365 31 1.0
2727 31 1.0
2664 31 1.0
2499 31 1.0
2452 31 1.0
584 31 4.0
31 31 1.0
32 32 1.0
4821 33 1.0
4699 33 1.0
4429 33 1.0
4371 33 1.0
2739 33 1.0
2676 33 1.0
2511 33 1.0
2464 33 1.0
659 33 -2.0
596 33 2.0
431 33 -2.0
384 33 -2.0
33 33 1.0
34 34 1.0
4823 35 1.0
4701 35 1.0
4431 35 1.0
4373 35 1.0
2743 35 1.0
2680 35 1.0
2515 35 1.0
2468 35 1.0
600 35 4.0
35 35 1.0
36 36 1.0
37 37 1.0
38 38 1.0
39 39 1.0
40 40 1.0
41 41 1.0
42 42 1.0
43 43 1.0
5726 44 1.0
5520 44 1.0
4998 44 1.0
4856 44 1.0
3161 44 1.0
3076 44 1.0
2845 44 1.0
2776 44 1.0
765 44 4.0
44 44 1.0
45 45 1.0
46 46 1.0
47 47 1.0
48 48 1.0
49 49 1.0
50 50 1.0
51 51 1.0
52 52 1.0
53 53 1.0
5780 54 1.0
5570 54 1.0
5036 54 1.0
4890 54 1.0
3205 54 1.0
3118 54 1.0
2881 54 1.0
2810 54 1.0
1125 54 -4.0
54 54 1.0
55 55 1.0
56 56 1.0
57 57 1.0
58 58 1.0
59 59 1.0
60 60 1.0
61 61 1.0
62 62 1.0
5833 63 1.0
5619 63 1.0
5073 63 1.0
4923 63 1.0
3339 63 1.0
3246 63 1.0
2991 63 1.0
2914 63 1.0
1259 63 -2.0
1166 63 -2.0
911 63 2.0
834 63 -2.0
63 63 1.0
64 64 1.0
5835 65 1.0
5621 65 1.0
5075 65 1.0
4925 65 1.0
3343 65 1.0
3250 65 1.0
2995 65 1.0
2918 65 1.0
1263 65 -4.0
1170 65 -4.0
838 65 -4.0
65 65 1.0
66 66 1.0
67 67 1.0
68 68 1.0
69 69 1.0
70 70 1.0
71 71 1.0
72 72 1.0
73 73 1.0
74 74 1.0
5889 75 1.0
5671 75 1.0
5113 75 1.0
4959 75 1.0
3387 75 1.0
3292 75 1.0
3031 75 1.0
2952 75 1.0
1307 75 -4.0
75 75 1.0
76 76 1.0
5891 77 1.0
5673 77 1.0
5115 77 1.0
4961 77 1.0
3391 77 1.0
3296 77 1.0
3035 77 1.0
2956 77 1.0
1311 77 -4.0
77 77 1.0
78 78 1.0
79 79 1.0
80 80 1.0
81 81 1.0
82 82 1.0
83 83 1.0
84 84 1.0
85 85 1.0
6178 86 1.0
5940 86 1.0
5322 86 1.0
5148 86 1.0
3969 86 1.0
3852 86 1.0
3525 86 1.0
3424 86 1.0
1445 86 4.0
86 86 1.0
87 87 1.0
6180 88 1.0
5942 88 1.0
5324 88 1.0
5150 88 1.0
3973 88 1.0
3856 88 1.0
3529 88 1.0
3428 88 1.0
1893 88 -2.0
1776 88 -2.0
1449 88 2.0
1348 88 -2.0
88 88 1.0
89 89 1.0
6186 90 1.0
5948 90 1.0
5330 90 1.0
5156 90 1.0
3985 90 1.0
3868 90 1.0
3541 90 1.0
3440 90 1.0
1461 90 4.0
90 90 1.0
91 91 1.0
92 92 1.0
93 93 1.0
94 94 1.0
95 95 1.0
96 96 1.0
97 97 1.0
98 98 1.0
99 99 1.0
6240 100 1.0
5998 100 1.0
5368 100 1.0
5190 100 1.0
4029 100 1.0
3910 100 1.0
3577 100 1.0
3474 100 1.0
1949 100 -4.0
100 100 1.0
101 101 1.0
6242 102 1.0
6000 102 1.0
5370 102 1.0
5192 102 1.0
4033 102 1.0
3914 102 1.0
3581 102 1.0
3478 102 1.0
1953 102 -4.0
102 102 1.0
103 103 1.0
6248 104 1.0
6006 104 1.0
5376 104 1.0
5198 104 1.0
4045 104 1.0
3926 104 1.0
3593 104 1.0
3490 104 1.0
1965 104 -4.0
104 104 1.0
105 105 1.0
106 106 1.0
107 107 1.0
108 108 1.0
109 109 1.0
110 110 1.0
111 111 1.0
112 112 1.0
6301 113 1.0
6055 113 1.0
5413 113 1.0
5231 113 1.0
4211 113 1.0
4086 113 1.0
3735 113 1.0
3626 113 1.0
1655 113 4.0
113 113 1.0
114 114 1.0
6303 115 1.0
6057 115 1.0
5415 115 1.0
5233 115 1.0
4215 115 1.0
4090 115 1.0
3739 115 1.0
3630 115 1.0
2135 115 -2.0
2010 115 -2.0
1659 115 2.0
1550 115 -2.0
115 115 1.0
116 116 1.0
6309 117 1.0
6063 117 1.0
5421 117 1.0
5239 117 1.0
4227 117 1.0
4102 117 1.0
3751 117 1.0
3642 117 1.0
1671 117 4.0
117 117 1.0
118 118 1.0
6311 119 1.0
6065 119 1.0
5423 119 1.0
5241 119 1.0
4231 119 1.0
4106 119 1.0
3755 119 1.0
3646 119 1.0
1675 119 4.0
119 119 1.0
120 120 1.0
121 121 1.0
122 122 1.0
123 123 1.0
124 124 1.0
125 125 1.0
126 126 1.0
127 127 1.0
128 128 1.0
6365 129 1.0
6115 129 1.0
5461 129 1.0
5275 129 1.0
4275 129 1.0
4148 129 1.0
3791 129 1.0
3680 129 1.0
2195 129 -2.0
2068 129 2.0
1711 129 2.0
1600 129 2.0
129 129 1.0
130 130 1.0
6367 131 1.0
6117 131 1.0
5463 131 1.0
5277 131 1.0
4279 131 1.0
4152 131 1.0
3795 131 1.0
3684 131 1.0
2199 131 -2.0
2072 131 2.0
1715 131 2.0
1604 131 2.0
131 131 1.0
132 132 1.0
6373 133 1.0
6123 133 1.0
5469 133 1.0
5283 133 1.0
4291 133 1.0
4164 133 1.0
3807 133 1.0
3696 133 1.0
2211 133 -2.0
2084 133 2.0
1727 133 2.0
1616 133 2.0
133 133 1.0
134 134 1.0
6375 135 1.0
6125 135 1.0
5471 135 1.0
5285 135 1.0
4295 135 1.0
4168 135 1.0
3811 135 1.0
3700 135 1.0
2088 135 4.0
1731 135 4.0
1620 135 4.0
135 135 1.0
2215 136 1.0
2151 136 1.0
2088 136 1.0
2026 136 1.0
1965 136 1.0
1905 136 1.0
1846 136 1.0
1788 136 1.0
1731 136 1.0
1675 136 1.0
1620 136 1.0
1566 136 1.0
1513 136 1.0
1461 136 1.0
1410 136 1.0
1360 136 1.0
1311 136 1.0
1263 136 1.0
1216 136 1.0
1170 136 1.0
1125 136 1.0
1081 136 1.0
1038 136 1.0
996 136 1.0
955 136 1.0
915 136 1.0
876 136 1.0
838 136 1.0
801 136 1.0
765 136 1.0
730 136 1.0
696 136 1.0
663 136 1.0
631 136 1.0
600 136 1.0
570 136 1.0
541 136 1.0
513 136 1.0
486 136 1.0
460 136 1.0
435 136 1.0
411 136 1.0
388 136 1.0
366 136 1.0
345 136 1.0
325 136 1.0
306 136 1.0
288 136 1.0
271 136 1.0
255 136 1.0
240 136 1.0
226 136 1.0
213 136 1.0
201 136 1.0
190 136 1.0
180 136 1.0
171 136 1.0
163 136 1.0
156 136 1.0
150 136 1.0
145 136 1.0
141 136 1.0
138 136 1.0
136 136 1.0
6376 136 1.0
6377 135 1.0
6377 119 1.0
6377 104 1.0
6377 90 1.0
6377 77 1.0
6377 65 1.0
6377 54 1.0
6377 44 1.0
6377 35 1.0
6377 27 1.0
6377 20 1.0
6377 14 1.0
6377 9 1.0
6377 5 1.0
6377 2 1.0
6377 0 1.0
6378 44 1.0
6378 2 -1.0
6379 53 0.7071067811865475
6379 7 -0.7071067811865475
6379 3 -0.7071067811865475
6379 1 0.7071067811865475
6380 63 0.7071067811865475
6380 16 -0.7071067811865475
6380 10 -0.7071067811865475
6380 3 0.7071067811865475
6381 74 0.7071067811865475
6381 29 -0.7071067811865475
6381 21 -0.7071067811865475
6381 6 0.7071067811865475
6382 86 0.7071067811865475
6382 46 -0.7071067811865475
6382 36 -0.7071067811865475
6382 10 0.7071067811865475
6383 99 0.7071067811865475
6383 67 -0.7071067811865475
6383 55 -0.7071067811865475
6383 15 0.7071067811865475
6384 113 0.7071067811865475
6384 92 -0.7071067811865475
6384 78 -0.7071067811865475
6384 21 0.7071067811865475
6385 128 0.7071067811865475
6385 121 -0.7071067811865475
6385 105 -0.7071067811865475
6385 28 0.7071067811865475
6386 53 0.7071067811865475
6386 7 -0.7071067811865475
6386 3 -0.7071067811865475
6386 1 0.7071067811865475
6387 54 1.0
6387 9 -1.0
6387 5 -1.0
6387 2 1.0
6388 64 0.7071067811865475
6388 18 -0.7071067811865475
6388 12 -0.7071067811865475
6388 4 0.7071067811865475
6389 75 0.7071067811865475
6389 31 -0.7071067811865475
6389 23 -0.7071067811865475
6389 7 0.7071067811865475
6390 87 0.7071067811865475
6390 48 -0.7071067811865475
6390 38 -0.7071067811865475
6390 11 0.7071067811865475
6391 100 0.7071067811865475
6391 69 -0.7071067811865475
6391 57 -0.7071067811865475
6391 16 0.7071067811865475
6392 114 0.7071067811865475
6392 94 -0.7071067811865475
6392 80 -0.7071067811865475
6392 22 0.7071067811865475
6393 129 0.7071067811865475
6393 123 -0.7071067811865475
6393 107 -0.7071067811865475
6393 29 0.7071067811865475
6394 63 0.7071067811865475
6394 16 -0.7071067811865475
6394 10 -0.7071067811865475
6394 3 0.7071067811865475
6395 64 0.7071067811865475
6395 18 -0.7071067811865475
6395 12 -0.7071067811865475
6395 4 0.7071067811865475
6396 65 1.0
6396 20 -1.0
6396 14 -1.0
6396 5 1.0
6397 76 0.7071067811865475
6397 33 -0.7071067811865475
6397 25 -0.7071067811865475
6397 8 0.7071067811865475
6398 88 0.7071067811865475
6398 50 -0.7071067811865475
6398 40 -0.7071067811865475
6398 12 0.7071067811865475
6399 101 0.7071067811865475
6399 71 -0.7071067811865475
6399 59 -0.7071067811865475
6399 17 0.7071067811865475
6400 115 0.7071067811865475
6400 96 -0.7071067811865475
6400 82 -0.7071067811865475
6400 23 0.7071067811865475
6401 130 0.7071067811865475
6401 125 -0.7071067811865475
6401 109 -0.7071067811865475
6401 30 0.7071067811865475
6402 74 0.7071067811865475
6402 29 -0.7071067811865475
6402 21 -0.7071067811865475
6402 6 0.7071067811865475
6403 75 0.7071067811865475
6403 31 -0.7071067811865475
6403 23 -0.7071067811865475
6403 7 0.7071067811865475
6404 76 0.7071067811865475
6404 33 -0.7071067811865475
6404 25 -0.7071067811865475
6404 8 0.7071067811865475
6405 77 1.0
6405 35 -1.0
6405 27 -1.0
6405 9 1.0
6406 89 0.7071067811865475
6406 52 -0.7071067811865475
6406 42 -0.7071067811865475
6406 13 0.7071067811865475
6407 102 0.7071067811865475
6407 73 -0.7071067811865475
6407 61 -0.7071067811865475
6407 18 0.7071067811865475
6408 116 0.7071067811865475
6408 98 -0.7071067811865475
6408 84 -0.7071067811865475
6408 24 0.7071067811865475
6409 131 0.7071067811865475
6409 127 -0.7071067811865475
6409 111 -0.7071067811865475
6409 31 0.7071067811865475
6410 86 0.7071067811865475
6410 46 -0.7071067811865475
6410 36 -0.7071067811865475
6410 10 0.7071067811865475
6411 87 0.7071067811865475
6411 48 -0.7071067811865475
6411 38 -0.7071067811865475
6411 11 0.7071067811865475
6412 88 0.7071067811865475
6412 50 -0.7071067811865475
6412 40 -0.7071067811865475
6412 12 0.7071067811865475
6413 89 0.7071067811865475
6413 52 -0.7071067811865475
6413 42 -0.7071067811865475
6413 13 0.7071067811865475
6414 90 1.0
6414 54 -1.0
6414 44 -1.0
6414 14 1.0
6415 103 0.7071067811865475
6415 75 -0.7071067811865475
6415 63 -0.7071067811865475
6415 19 0.7071067811865475
6416 117 0.7071067811865475
6416 100 -0.7071067811865475
6416 86 -0.7071067811865475
6416 25 0.7071067811865475
6417 132 0.7071067811865475
6417 129 -0.7071067811865475
6417 113 -0.7071067811865475
6417 32 0.7071067811865475
6418 99 0.7071067811865475
6418 67 -0.7071067811865475
6418 55 -0.7071067811865475
6418 15 0.7071067811865475
6419 100 0.7071067811865475
6419 69 -0.7071067811865475
6419 57 -0.7071067811865475
6419 16 0.7071067811865475
6420 101 0.7071067811865475
6420 71 -0.7071067811865475
6420 59 -0.7071067811865475
6420 17 0.7071067811865475
6421 102 0.7071067811865475
6421 73 -0.7071067811865475
6421 61 -0.7071067811865475
6421 18 0.7071067811865475
6422 103 0.7071067811865475
6422 75 -0.7071067811865475
6422 63 -0.7071067811865475
6422 19 0.7071067811865475
6423 104 1.0
6423 77 -1.0
6423 65 -1.0
6423 20 1.0
6424 118 0.7071067811865475
6424 102 -0.7071067811865475
6424 88 -0.7071067811865475
6424 26 0.7071067811865475
6425 133 0.7071067811865475
6425 131 -0.7071067811865475
6425 115 -0.7071067811865475
6425 33 0.7071067811865475
6426 113 0.7071067811865475
6426 92 -0.7071067811865475
6426 78 -0.7071067811865475
6426 21 0.7071067811865475
6427 114 0.7071067811865475
6427 94 -0.7071067811865475
6427 80 -0.7071067811865475
6427 22 0.7071067811865475
6428 115 0.7071067811865475
6428 96 -0.7071067811865475
6428 82 -0.7071067811865475
6428 23 0.7071067811865475
6429 116 0.7071067811865475
6429 98 -0.7071067811865475
6429 84 -0.7071067811865475
6429 24 0.7071067811865475
6430 117 0.7071067811865475
6430 100 -0.7071067811865475
6430 86 -0.7071067811865475
6430 25 0.7071067811865475
6431 118 0.7071067811865475
6431 102 -0.7071067811865475
6431 88 -0.7071067811865475
6431 26 0.7071067811865475
6432 119 1.0
6432 104 -1.0
6432 90 -1.0
6432 27 1.0
6433 134 0.7071067811865475
6433 133 -0.7071067811865475
6433 117 -0.7071067811865475
6433 34 0.7071067811865475
6434 128 0.7071067811865475
6434 121 -0.7071067811865475
6434 105 -0.7071067811865475
6434 28 0.7071067811865475
6435 129 0.7071067811865475
6435 123 -0.7071067811865475
6435 107 -0.7071067811865475
6435 29 0.7071067811865475
6436 130 0.7071067811865475
6436 125 -0.7071067811865475
6436 109 -0.7071067811865475
6436 30 0.7071067811865475
6437 131 0.7071067811865475
6437 127 -0.7071067811865475
6437 111 -0.7071067811865475
6437 31 0.7071067811865475
6438 132 0.7071067811865475
6438 129 -0.7071067811865475
6438 113 -0.7071067811865475
6438 32 0.7071067811865475
6439 133 0.7071067811865475
6439 131 -0.7071067811865475
6439 115 -0.7071067811865475
6439 33 0.7071067811865475
6440 134 0.7071067811865475
6440 133 -0.7071067811865475
6440 117 -0.7071067811865475
6440 34 0.7071067811865475
6441 119 -1.0
6441 35 1.0
6442 3 2.82842712474619
6443 3 -2.82842712474619
6444 10 2.82842712474619
6445 16 2.82842712474619
6446 21 2.82842712474619
6447 18 2.82842712474619
6448 10 -2.82842712474619
6449 16 -2.82842712474619
6450 18 -2.82842712474619
6451 21 -2.82842712474619
6452 33 -2.82842712474619
6453 33 2.82842712474619
6454 63 2.82842712474619
6455 63 -2.82842712474619
6456 129 -2.82842712474619
6457 88 -2.82842712474619
6458 115 -2.82842712474619
6459 131 -2.82842712474619
6460 88 2.82842712474619
6461 129 2.82842712474619
6462 115 2.82842712474619
6463 131 2.82842712474619
6464 133 -2.82842712474619
6465 133 2.82842712474619

BCOORD
1
6377 1.0
